phase2/instance_output2/problem970.out
np_hard7
np_hard12
